Optimal - objective value -361.00000000
      0 x_0                      0                       0
      1 x_1                      0                      64
      2 x_2                      1                      -4
      3 x_3                      0                      21
      4 x_4                      0                      59
      5 x_5                      0                       0
      6 x_6                      1                       0
      7 x_7                      0                      69
      8 x_8                      0                       0
      9 x_9                      0                      73
     10 x_10                     1                       0
     11 x_11                     1                       0
     12 x_12                     1                     -38
     13 x_13                     0                      70
     14 x_14                     1                     -10
